Problem:    
Rows:       113
Columns:    45 (34 integer, 34 binary)
Non-zeros:  356
Status:     INTEGER OPTIMAL
Objective:  value = 11.720826 (MINimum)

   No.   Row name        Activity     Lower bound   Upper bound
------ ------------    ------------- ------------- -------------
     1 r.5                   11.7208             0               
     2 r.6                   11.7208      -995.093               
     3 r.7                   1011.72             0               
     4 r.8                  -988.279      -995.893               
     5 r.9                   11.7208             0               
     6 r.10                  11.7208       -995.06               
     7 r.11                  1011.72             0               
     8 r.12                 -992.386      -996.602               
     9 r.13                  1011.72             0               
    10 r.14                 -988.279      -992.048               
    11 r.15                  11.7208             0               
    12 r.16                  11.7208      -991.989               
    13 r.17                  11.7208             0               
    14 r.18                  11.7208      -996.283               
    15 r.19                  1011.72             0               
    16 r.20                 -995.784      -998.295               
    17 r.21                  11.7208             0               
    18 r.22                  4.20148      -999.701               
    19 r.23                  1011.72             0               
    20 r.24                 -998.853      -998.853               
    21 r.25                        1             1             = 
    22 r.26                        1             1             = 
    23 r.27                        1             1             = 
    24 r.28                        1             1             = 
    25 r.29                        1             1             = 
    26 r.30                     1000             2               
    27 r.31                    -1000         -1001               
    28 r.32                     2000       -995.06               
    29 r.33                        2             2               
    30 r.34                       -2         -1001               
    31 r.35                  -4.1069      -996.602               
    32 r.36                     1001             2               
    33 r.37                    -1001         -1001               
    34 r.38                     2000      -992.048               
    35 r.39                     1001             2               
    36 r.40                    -1001         -1001               
    37 r.41                     2000      -991.989               
    38 r.42                     1000             2               
    39 r.43                    -1000         -1001               
    40 r.44                     2000      -996.283               
    41 r.45                        2             2               
    42 r.46                       -2         -1001               
    43 r.47                  -7.5048      -998.295               
    44 r.48                   9.2095      -995.093               
    45 r.49                  -990.79      -995.893               
    46 r.50                   9.2095      -995.093               
    47 r.51                  -990.79      -995.893               
    48 r.52                     1000             2               
    49 r.53                    -1000         -1001               
    50 r.54                     2000         4.907               
    51 r.55                        2             2               
    52 r.56                       -2         -1001               
    53 r.57                   4.1069        4.1069               
    54 r.58                     1001             2               
    55 r.59                    -1001         -1001               
    56 r.60                     2000      -992.048               
    57 r.61                     1001             2               
    58 r.62                    -1001         -1001               
    59 r.63                  2004.11      -991.989               
    60 r.64                     1000             2               
    61 r.65                    -1000         -1001               
    62 r.66                     2000      -996.283               
    63 r.67                        2             2               
    64 r.68                       -2         -1001               
    65 r.69                  -3.3979      -998.295               
    66 r.70                   9.2095       -995.06               
    67 r.71                 -994.897      -996.602               
    68 r.72                   9.2095       -995.06               
    69 r.73                 -994.897      -996.602               
    70 r.74                     1001             2               
    71 r.75                    -1001         -1001               
    72 r.76                     2000         4.907               
    73 r.77                     1001             2               
    74 r.78                    -1001         -1001               
    75 r.79                     2000        4.1069               
    76 r.80                     1001             2               
    77 r.81                    -1001         -1001               
    78 r.82                     2000        4.9401               
    79 r.83                     1001             2               
    80 r.84                    -1001         -1001               
    81 r.85                  1995.89        3.3979               
    82 r.86                     1001             2               
    83 r.87                    -1001         -1001               
    84 r.88                     2000      -996.283               
    85 r.89                     1001             2               
    86 r.90                    -1001         -1001               
    87 r.91                   1992.5      -998.295               
    88 r.92                  -990.79      -992.048               
    89 r.93                   9.2095      -991.989               
    90 r.94                  -990.79      -992.048               
    91 r.95                   9.2095      -991.989               
    92 r.96                     1000             2               
    93 r.97                    -1000         -1001               
    94 r.98                     2000         4.907               
    95 r.99                        2             2               
    96 r.100                      -2         -1001               
    97 r.101                  7.5048        4.1069               
    98 r.102                    1000             2               
    99 r.103                   -1000         -1001               
   100 r.104                    2000        4.9401               
   101 r.105                       2             2               
   102 r.106                      -2         -1001               
   103 r.107                  3.3979        3.3979               
   104 r.108                    1001             2               
   105 r.109                   -1001         -1001               
   106 r.110                    2000        7.9525               
   107 r.111                    1001             2               
   108 r.112                   -1001         -1001               
   109 r.113                  2007.5        8.0107               
   110 r.114                  9.2095      -996.283               
   111 r.115                -998.295      -998.295               
   112 r.116                  9.2095      -996.283               
   113 r.117                -998.295      -998.295               

   No. Column name       Activity     Lower bound   Upper bound
------ ------------    ------------- ------------- -------------
     1 tt                    11.7208             0               
     2 s_1_1        *              0             0             1 
     3 t_1_1                       0             0               
     4 s_2_1        *              1             0             1 
     5 t_2_1                       0             0               
     6 s_1_2        *              0             0             1 
     7 t_1_2                       0             0               
     8 s_2_2        *              1             0             1 
     9 t_2_2                  4.1069             0               
    10 s_1_3        *              1             0             1 
    11 t_1_3                       0             0               
    12 s_2_3        *              0             0             1 
    13 t_2_3                       0             0               
    14 s_1_4        *              0             0             1 
    15 t_1_4                       0             0               
    16 s_2_4        *              1             0             1 
    17 t_2_4                  7.5048             0               
    18 s_1_5        *              0             0             1 
    19 t_1_5                  9.2095             0               
    20 s_2_5        *              1             0             1 
    21 t_2_5                  9.2095             0               
    22 r_1_1_2      *              1             0             1 
    23 u_1_1_2      *              0             0             1 
    24 r_2_1_2      *              0             0             1 
    25 u_2_1_2      *              0             0             1 
    26 r_1_1_3      *              1             0             1 
    27 u_1_1_3      *              0             0             1 
    28 r_2_1_3      *              1             0             1 
    29 u_2_1_3      *              0             0             1 
    30 r_1_1_4      *              1             0             1 
    31 u_1_1_4      *              0             0             1 
    32 r_2_1_4      *              0             0             1 
    33 u_2_1_4      *              0             0             1 
    34 r_1_2_3      *              1             0             1 
    35 u_1_2_3      *              0             0             1 
    36 r_2_2_3      *              1             0             1 
    37 u_2_2_3      *              0             0             1 
    38 r_1_2_4      *              1             0             1 
    39 u_1_2_4      *              0             0             1 
    40 r_2_2_4      *              0             0             1 
    41 u_2_2_4      *              0             0             1 
    42 r_1_3_4      *              1             0             1 
    43 u_1_3_4      *              0             0             1 
    44 r_2_3_4      *              1             0             1 
    45 u_2_3_4      *              0             0             1 

Integer feasibility conditions:

KKT.PE: max.abs.err = 0.00e+00 on row 0
        max.rel.err = 0.00e+00 on row 0
        High quality

KKT.PB: max.abs.err = 0.00e+00 on row 0
        max.rel.err = 0.00e+00 on row 0
        High quality

End of output
